14
0 67 35 49 26 30 55 73 34 75 53 46 8 77
67 0 91 15 25 57 89 45 60 45 85 51 27 58
35 91 0 41 47 23 76 62 51 63 51 35 84 48
49 15 41 0 25 29 26 91 81 35 26 75 43 86
26 25 47 25 0 13 46 33 28 6 69 71 29 21
30 57 23 29 13 0 58 23 30 79 76 59 98 65
55 89 76 26 46 58 0 30 75 60 56 68 65 70
73 45 62 91 33 23 30 0 64 35 59 43 51 18
34 60 51 81 28 30 75 64 0 29 52 34 87 64
75 45 63 35 6 79 60 35 29 0 52 83 48 74
53 85 51 26 69 76 56 59 52 52 0 65 56 47
46 51 35 75 71 59 68 43 34 83 65 0 46 60
8 27 84 43 29 98 65 51 87 48 56 46 0 24
77 58 48 86 21 65 70 18 64 74 47 60 24 0
